Problem:    
Rows:       113
Columns:    45 (34 integer, 34 binary)
Non-zeros:  356
Status:     INTEGER OPTIMAL
Objective:  value = 9.618975 (MINimum)

   No.   Row name        Activity     Lower bound   Upper bound
------ ------------    ------------- ------------- -------------
     1 r.5                   1009.62             0               
     2 r.6                  -990.381      -996.691               
     3 r.7                   9.61897             0               
     4 r.8                   9.61897      -995.295               
     5 r.9                   9.61897             0               
     6 r.10                  9.61897      -993.085               
     7 r.11                  1009.62             0               
     8 r.12                 -990.381      -992.165               
     9 r.13                  1009.62             0               
    10 r.14                  -993.69      -997.326               
    11 r.15                  9.61897             0               
    12 r.16                  9.61897      -997.501               
    13 r.17                  1009.62             0               
    14 r.18                 -996.364      -998.286               
    15 r.19                  9.61897             0               
    16 r.20                  9.61897      -998.912               
    17 r.21                  1009.62             0               
    18 r.22                 -999.793      -999.793               
    19 r.23                  9.61897             0               
    20 r.24                  3.00512      -999.001               
    21 r.25                        1             1             = 
    22 r.26                        1             1             = 
    23 r.27                        1             1             = 
    24 r.28                        1             1             = 
    25 r.29                        1             1             = 
    26 r.30                     1001             2               
    27 r.31                    -1001         -1001               
    28 r.32                     2000      -993.085               
    29 r.33                     1001             2               
    30 r.34                    -1001         -1001               
    31 r.35                     2000      -992.165               
    32 r.36                        2             2               
    33 r.37                       -2         -1001               
    34 r.38                  -3.3094      -997.326               
    35 r.39                     1000             2               
    36 r.40                    -1000         -1001               
    37 r.41                     2000      -997.501               
    38 r.42                        2             2               
    39 r.43                       -2         -1001               
    40 r.44                  -5.9832      -998.286               
    41 r.45                     1000             2               
    42 r.46                    -1000         -1001               
    43 r.47                     2000      -998.912               
    44 r.48                 -992.165      -996.691               
    45 r.49                  7.83486      -995.295               
    46 r.50                 -992.165      -996.691               
    47 r.51                  7.83486      -995.295               
    48 r.52                     1001             2               
    49 r.53                    -1001         -1001               
    50 r.54                     2000        3.3094               
    51 r.55                     1001             2               
    52 r.56                    -1001         -1001               
    53 r.57                     2000       4.70525               
    54 r.58                     1001             2               
    55 r.59                    -1001         -1001               
    56 r.60                  1996.69      -997.326               
    57 r.61                     1001             2               
    58 r.62                    -1001         -1001               
    59 r.63                     2000      -997.501               
    60 r.64                     1001             2               
    61 r.65                    -1001         -1001               
    62 r.66                  1994.02      -998.286               
    63 r.67                     1001             2               
    64 r.68                    -1001         -1001               
    65 r.69                     2000      -998.912               
    66 r.70                  7.83486      -993.085               
    67 r.71                 -992.165      -992.165               
    68 r.72                  7.83486      -993.085               
    69 r.73                 -992.165      -992.165               
    70 r.74                        2             2               
    71 r.75                       -2         -1001               
    72 r.76                   3.3094        3.3094               
    73 r.77                     1000             2               
    74 r.78                    -1000         -1001               
    75 r.79                     2000       4.70525               
    76 r.80                     1001             2               
    77 r.81                    -1001         -1001               
    78 r.82                  2003.31        6.9147               
    79 r.83                     1001             2               
    80 r.84                    -1001         -1001               
    81 r.85                     2000       7.83486               
    82 r.86                        2             2               
    83 r.87                       -2         -1001               
    84 r.88                  -2.6738      -998.286               
    85 r.89                     1000             2               
    86 r.90                    -1000         -1001               
    87 r.91                     2000      -998.912               
    88 r.92                 -995.475      -997.326               
    89 r.93                  7.83486      -997.501               
    90 r.94                 -995.475      -997.326               
    91 r.95                  7.83486      -997.501               
    92 r.96                        2             2               
    93 r.97                       -2         -1001               
    94 r.98                   5.9832        3.3094               
    95 r.99                     1000             2               
    96 r.100                   -1000         -1001               
    97 r.101                    2000       4.70525               
    98 r.102                    1001             2               
    99 r.103                   -1001         -1001               
   100 r.104                 2005.98        6.9147               
   101 r.105                    1001             2               
   102 r.106                   -1001         -1001               
   103 r.107                    2000       7.83486               
   104 r.108                       2             2               
   105 r.109                      -2         -1001               
   106 r.110                  2.6738        2.6738               
   107 r.111                    1000             2               
   108 r.112                   -1000         -1001               
   109 r.113                    2000        2.4993               
   110 r.114                -998.148      -998.286               
   111 r.115                 7.83486      -998.912               
   112 r.116                -998.148      -998.286               
   113 r.117                 7.83486      -998.912               

   No. Column name       Activity     Lower bound   Upper bound
------ ------------    ------------- ------------- -------------
     1 tt                    9.61897             0               
     2 s_1_1        *              1             0             1 
     3 t_1_1                       0             0               
     4 s_2_1        *              0             0             1 
     5 t_2_1                       0             0               
     6 s_1_2        *              0             0             1 
     7 t_1_2                       0             0               
     8 s_2_2        *              1             0             1 
     9 t_2_2                       0             0               
    10 s_1_3        *              1             0             1 
    11 t_1_3                  3.3094             0               
    12 s_2_3        *              0             0             1 
    13 t_2_3                       0             0               
    14 s_1_4        *              1             0             1 
    15 t_1_4                  5.9832             0               
    16 s_2_4        *              0             0             1 
    17 t_2_4                       0             0               
    18 s_1_5        *              1             0             1 
    19 t_1_5                 7.83486             0               
    20 s_2_5        *              0             0             1 
    21 t_2_5                 7.83486             0               
    22 r_1_1_2      *              1             0             1 
    23 u_1_1_2      *              0             0             1 
    24 r_2_1_2      *              1             0             1 
    25 u_2_1_2      *              0             0             1 
    26 r_1_1_3      *              0             0             1 
    27 u_1_1_3      *              0             0             1 
    28 r_2_1_3      *              1             0             1 
    29 u_2_1_3      *              0             0             1 
    30 r_1_1_4      *              0             0             1 
    31 u_1_1_4      *              0             0             1 
    32 r_2_1_4      *              1             0             1 
    33 u_2_1_4      *              0             0             1 
    34 r_1_2_3      *              1             0             1 
    35 u_1_2_3      *              0             0             1 
    36 r_2_2_3      *              1             0             1 
    37 u_2_2_3      *              0             0             1 
    38 r_1_2_4      *              1             0             1 
    39 u_1_2_4      *              0             0             1 
    40 r_2_2_4      *              1             0             1 
    41 u_2_2_4      *              0             0             1 
    42 r_1_3_4      *              0             0             1 
    43 u_1_3_4      *              0             0             1 
    44 r_2_3_4      *              1             0             1 
    45 u_2_3_4      *              0             0             1 

Integer feasibility conditions:

KKT.PE: max.abs.err = 1.14e-13 on row 18
        max.rel.err = 5.60e-17 on row 18
        High quality

KKT.PB: max.abs.err = 1.14e-13 on row 18
        max.rel.err = 1.40e-14 on row 106
        High quality

End of output
